15
1 0 3
2 0 7
3 2 5
4 0 1
4 1 2
4 2 2
4 3 4
5 0 5
5 1 2
6 0 6
6 1 2
6 2 2
6 4 5
6 5 4
7 0 4
7 4 4
7 5 3
7 6 7
8 0 4
8 2 4
8 3 1
8 6 2
9 0 5
9 1 6
9 2 1
9 3 1
9 4 2
9 5 5
9 8 4
10 0 6
10 1 6
10 3 6
10 4 2
10 5 1
10 6 3
10 7 4
11 0 4
11 1 3
11 2 2
11 7 3
12 1 3
12 3 7
12 7 2
13 0 7
13 1 6
13 2 3
13 3 6
13 5 3
13 7 5
13 8 2
13 9 5
13 10 1
13 12 4
14 1 4
14 7 5
14 8 6
14 11 2
14 12 6
